r = [
0,330,49,226,40,305,242,140,61,242,12,146,63,141,1,18,262,176,304,309,332,253,151,55,268,80,0
];
p = [
0,8,26,14,9,20,1,2,9,4,22,15,17,23,13,19,13,21,28,11,26,21,26,7,24,25,0
];
e = [
0,10,7,18,14,6,2,12,20,19,16,9,1,15,19,19,10,16,8,11,11,6,6,12,3,9,0
];
d = [
0,474,75,391,49,325,276,142,209,246,34,236,257,340,197,232,275,197,424,320,377,450,282,223,337,112,481
];
d_bar = [
0,481,98,404,57,343,277,144,217,250,54,250,272,361,209,249,287,216,449,330,400,469,305,229,359,135,481
];
w = [
0,1.428571429,0.304347826,1.384615385,1.75,0.333333333,2,6,2.5,4.75,0.8,0.642857143,0.066666667,0.714285714,1.583333333,1.117647059,0.833333333,0.842105263,0.32,1.1,0.47826087,0.315789474,0.260869565,2,0.136363636,0.391304348,0
];
